
Value of objective function: 0.00242273

Actual values of the variables:
pL1_div_from_law       0.00242273
comp_pos0                       0
comp_neg0                       0
comp_pos1                       0
comp_neg1                       0
comp_pos2                       0
comp_neg2                       0
comp_pos3                       0
comp_neg3                       0
comp_pos4                       0
comp_neg4                       0
comp_pos5                       0
comp_neg5                       0
comp_pos6              0.00242273
comp_neg6                       0
comp_pos7                       0
comp_neg7                       0
comp_pos8                       0
comp_neg8                       0
comp_pos9                       0
comp_neg9                       0
comp_pos10                      0
comp_neg10                      0
comp_pos11                      0
comp_neg11                      0
comp_pos12                      0
comp_neg12                      0
comp_pos13                      0
comp_neg13                      0
z_c0_t0               1.32138e+10
p0_c0_t0              1.76549e+09
p1_c0_t0              3.08664e+09
p2_c0_t0              7.56459e+09
p3_c0_t0              7.97114e+08
diff0                           0
normdiff0                       0
z_c0_t1               1.47752e+10
p0_c0_t1              1.53412e+09
p1_c0_t1              3.42714e+09
p2_c0_t1              8.49283e+09
p3_c0_t1              1.32111e+09
diff1                           0
normdiff1                       0
z_c1_t0               1.65566e+10
p0_c1_t0              1.76737e+09
p1_c1_t0              3.96606e+09
p2_c1_t0              1.04738e+10
p3_c1_t0              3.49303e+08
diff2                           0
normdiff2                       0
z_c1_t1               1.94959e+10
p0_c1_t1              1.79897e+09
p1_c1_t1              5.64224e+09
p2_c1_t1              1.15828e+10
p3_c1_t1              4.71931e+08
diff3                           0
normdiff3                       0
z_c2_t0               7.24754e+09
p0_c2_t0              6.03006e+08
p1_c2_t0              1.61841e+09
p2_c2_t0              4.71734e+09
p3_c2_t0              3.08777e+08
diff4                           0
normdiff4                       0
z_c2_t1               7.97123e+09
p0_c2_t1              4.94411e+08
p1_c2_t1              1.87299e+09
p2_c2_t1              5.04399e+09
p3_c2_t1              5.59836e+08
diff5                           0
normdiff5                       0
z_c3_t0               1.22612e+10
p0_c3_t0              1.09098e+09
p1_c3_t0              2.76687e+09
p2_c3_t0              7.68645e+09
p3_c3_t0              7.46592e+08
diff6                 2.97056e+07
normdiff6              0.00242273
z_c3_t1               1.42798e+10
p0_c3_t1              1.24635e+09
p1_c3_t1              2.83361e+09
p2_c3_t1              7.78375e+09
p3_c3_t1              2.41607e+09
diff7                           0
normdiff7                       0
z_c4_t0               7.97197e+09
p0_c4_t0              4.81532e+08
p1_c4_t0              3.09615e+09
p2_c4_t0              4.25263e+09
p3_c4_t0              1.41653e+08
diff8                           0
normdiff8                       0
z_c4_t1                8.9819e+09
p0_c4_t1              5.02904e+08
p1_c4_t1              2.85044e+09
p2_c4_t1              5.41018e+09
p3_c4_t1              2.18375e+08
diff9                           0
normdiff9                       0
z_c5_t0               1.00642e+10
p0_c5_t0              8.49164e+08
p1_c5_t0              2.58658e+09
p2_c5_t0              6.56945e+09
p3_c5_t0              5.89655e+07
diff10                          0
normdiff10                      0
z_c5_t1                1.2016e+10
p0_c5_t1               6.2656e+08
p1_c5_t1              2.58769e+09
p2_c5_t1              8.17279e+09
p3_c5_t1              6.28965e+08
diff11                          0
normdiff11                      0
z_c6_t0               1.81204e+10
p0_c6_t0               1.5505e+09
p1_c6_t0               3.3004e+09
p2_c6_t0              1.29326e+10
p3_c6_t0              3.36853e+08
diff12                          0
normdiff12                      0
z_c6_t1               2.06345e+10
p0_c6_t1              1.68389e+09
p1_c6_t1              2.99513e+09
p2_c6_t1              1.56502e+10
p3_c6_t1              3.05279e+08
diff13                          0
normdiff13                      0
